; SWAP1 SWAP2 DUP3 SWAP2 SWAP1 => DUP2 SWAP3
(set-option :produce-proofs true)
; 
(set-info :status unknown)
(declare-fun storage_t ((_ BitVec 256) (_ BitVec 256) (_ BitVec 256) Int (_ BitVec 256)) (_ BitVec 256))
(declare-fun storage_s ((_ BitVec 256) (_ BitVec 256) (_ BitVec 256) Int (_ BitVec 256)) (_ BitVec 256))
(declare-fun exc_halt_t (Int) Bool)
(declare-fun exc_halt_s (Int) Bool)
(declare-fun stack_t ((_ BitVec 256) (_ BitVec 256) (_ BitVec 256) Int (_ BitVec 6)) (_ BitVec 256))
(declare-fun stack_s ((_ BitVec 256) (_ BitVec 256) (_ BitVec 256) Int (_ BitVec 6)) (_ BitVec 256))
(declare-fun sc_t (Int) (_ BitVec 6))
(declare-fun sc_s (Int) (_ BitVec 6))
(declare-fun used_gas_t ((_ BitVec 256) (_ BitVec 256) (_ BitVec 256) Int) Int)
(declare-fun used_gas_s ((_ BitVec 256) (_ BitVec 256) (_ BitVec 256) Int) Int)
(assert
 (exists ((x_0 (_ BitVec 256)) (x_1 (_ BitVec 256)) (x_2 (_ BitVec 256)) )(let (($x7140 (forall ((w (_ BitVec 256)) )(let ((?x1329 (storage_t x_0 x_1 x_2 2 w)))
 (let ((?x8902 (storage_s x_0 x_1 x_2 5 w)))
 (= ?x8902 ?x1329))))
 ))
 (let (($x10380 (exc_halt_t 2)))
 (let (($x1862 (exc_halt_s 5)))
 (let (($x1256 (= $x1862 $x10380)))
 (let (($x11372 (forall ((n (_ BitVec 6)) )(let ((?x900 (stack_t x_0 x_1 x_2 2 n)))
 (let ((?x2435 (stack_s x_0 x_1 x_2 5 n)))
 (let (($x2921 (= ?x2435 ?x900)))
 (let ((?x9193 (sc_t 2)))
 (let (($x2627 (bvsle ?x9193 n)))
 (or $x2627 $x2921)))))))
 ))
 (let ((?x9193 (sc_t 2)))
 (let ((?x4319 (sc_s 5)))
 (let (($x2129 (= ?x4319 ?x9193)))
 (let ((?x6915 (used_gas_t x_0 x_1 x_2 0)))
 (let ((?x7505 (used_gas_s x_0 x_1 x_2 0)))
 (let (($x11669 (= ?x7505 ?x6915)))
 (let (($x11468 (forall ((w (_ BitVec 256)) )(let ((?x9715 (storage_t x_0 x_1 x_2 0 w)))
 (let ((?x7998 (storage_s x_0 x_1 x_2 0 w)))
 (= ?x7998 ?x9715))))
 ))
 (let (($x56 (exc_halt_t 0)))
 (let (($x57 (exc_halt_s 0)))
 (let (($x58 (= $x57 $x56)))
 (let (($x3734 (forall ((n (_ BitVec 6)) )(let ((?x63 (sc_t 0)))
 (let (($x11418 (bvsle ?x63 n)))
 (let ((?x11852 (stack_t x_0 x_1 x_2 0 n)))
 (let ((?x3463 (stack_s x_0 x_1 x_2 0 n)))
 (let (($x10648 (= ?x3463 ?x11852)))
 (or $x10648 $x11418)))))))
 ))
 (let ((?x63 (sc_t 0)))
 (let ((?x72 (sc_s 0)))
 (let (($x73 (= ?x72 ?x63)))
 (let (($x9780 (= $x10380 (or (exc_halt_t 1) (not (bvsle (_ bv0 6) (bvadd (_ bv60 6) (sc_t 1))))))))
 (let (($x6502 (forall ((w (_ BitVec 256)) )(let ((?x5593 (storage_t x_0 x_1 x_2 1 w)))
 (let ((?x1329 (storage_t x_0 x_1 x_2 2 w)))
 (= ?x1329 ?x5593))))
 ))
 (let (($x1173 (forall ((n (_ BitVec 6)) )(let ((?x8615 (sc_t 1)))
 (let ((?x4078 (bvadd (_ bv60 6) ?x8615)))
 (let (($x5288 (bvsle ?x4078 n)))
 (let ((?x1111 (stack_t x_0 x_1 x_2 1 n)))
 (let ((?x900 (stack_t x_0 x_1 x_2 2 n)))
 (let (($x3634 (= ?x900 ?x1111)))
 (or $x3634 $x5288))))))))
 ))
 (let ((?x8615 (sc_t 1)))
 (let (($x10097 (= ?x9193 ?x8615)))
 (let ((?x8607 (used_gas_t x_0 x_1 x_2 2)))
 (let (($x7742 (= ?x8607 (+ 3 (used_gas_t x_0 x_1 x_2 1)))))
 (let ((?x10630 (bvadd (_ bv62 6) ?x8615)))
 (let ((?x7527 (stack_t x_0 x_1 x_2 1 ?x10630)))
 (let ((?x11577 (bvadd (_ bv62 6) ?x9193)))
 (let ((?x7789 (stack_t x_0 x_1 x_2 2 ?x11577)))
 (let ((?x2744 (bvadd (_ bv61 6) ?x8615)))
 (let ((?x2964 (stack_t x_0 x_1 x_2 1 ?x2744)))
 (let ((?x3138 (bvadd (_ bv63 6) ?x8615)))
 (let ((?x7607 (stack_t x_0 x_1 x_2 1 ?x3138)))
 (let ((?x8475 (bvadd (_ bv63 6) ?x9193)))
 (let ((?x2844 (stack_t x_0 x_1 x_2 2 ?x8475)))
 (let (($x11494 (not (bvsle (_ bv0 6) (bvadd (_ bv62 6) ?x63)))))
 (let (($x1467 (not (= ((_ extract 6 6) (bvadd (_ bv1 7) (concat (_ bv0 1) ?x63))) (_ bv0 1)))))
 (let (($x11710 (exc_halt_t 1)))
 (let (($x2018 (forall ((w (_ BitVec 256)) )(let ((?x9715 (storage_t x_0 x_1 x_2 0 w)))
 (let ((?x5593 (storage_t x_0 x_1 x_2 1 w)))
 (= ?x5593 ?x9715))))
 ))
 (let (($x415 (forall ((n (_ BitVec 6)) )(let ((?x63 (sc_t 0)))
 (let ((?x14 (bvadd (_ bv62 6) ?x63)))
 (let (($x6031 (bvsle ?x14 n)))
 (let ((?x11852 (stack_t x_0 x_1 x_2 0 n)))
 (let ((?x1111 (stack_t x_0 x_1 x_2 1 n)))
 (let (($x2172 (= ?x1111 ?x11852)))
 (or $x2172 $x6031))))))))
 ))
 (let (($x2614 (= ?x8615 (bvadd (_ bv1 6) ?x63))))
 (let ((?x11082 (used_gas_t x_0 x_1 x_2 1)))
 (let (($x10584 (= ?x11082 (+ 3 ?x6915))))
 (let ((?x4937 (bvadd (_ bv63 6) ?x63)))
 (let ((?x8080 (stack_t x_0 x_1 x_2 0 ?x4937)))
 (let ((?x14 (bvadd (_ bv62 6) ?x63)))
 (let ((?x7072 (stack_t x_0 x_1 x_2 0 ?x14)))
 (let (($x10154 (= $x1862 (or (exc_halt_s 4) (not (bvsle (_ bv0 6) (bvadd (_ bv62 6) (sc_s 4))))))))
 (let (($x7683 (forall ((w (_ BitVec 256)) )(let ((?x7297 (storage_s x_0 x_1 x_2 4 w)))
 (let ((?x8902 (storage_s x_0 x_1 x_2 5 w)))
 (= ?x8902 ?x7297))))
 ))
 (let (($x2644 (forall ((n (_ BitVec 6)) )(let ((?x8911 (stack_s x_0 x_1 x_2 4 n)))
 (let ((?x2435 (stack_s x_0 x_1 x_2 5 n)))
 (let (($x9156 (= ?x2435 ?x8911)))
 (let ((?x9433 (sc_s 4)))
 (let ((?x7666 (bvadd (_ bv62 6) ?x9433)))
 (let (($x8098 (bvsle ?x7666 n)))
 (or $x8098 $x9156))))))))
 ))
 (let ((?x9433 (sc_s 4)))
 (let (($x932 (= ?x4319 ?x9433)))
 (let ((?x3373 (used_gas_s x_0 x_1 x_2 5)))
 (let ((?x6129 (bvadd (_ bv63 6) ?x9433)))
 (let ((?x6020 (stack_s x_0 x_1 x_2 4 ?x6129)))
 (let ((?x7666 (bvadd (_ bv62 6) ?x9433)))
 (let ((?x1205 (stack_s x_0 x_1 x_2 4 ?x7666)))
 (let (($x9175 (exc_halt_s 4)))
 (let (($x4526 (= $x9175 (or (exc_halt_s 3) (not (bvsle (_ bv0 6) (bvadd (_ bv61 6) (sc_s 3))))))))
 (let (($x6977 (forall ((w (_ BitVec 256)) )(let ((?x1732 (storage_s x_0 x_1 x_2 3 w)))
 (let ((?x7297 (storage_s x_0 x_1 x_2 4 w)))
 (= ?x7297 ?x1732))))
 ))
 (let (($x4301 (forall ((n (_ BitVec 6)) )(let ((?x10792 (stack_s x_0 x_1 x_2 3 n)))
 (let ((?x8911 (stack_s x_0 x_1 x_2 4 n)))
 (let (($x7275 (= ?x8911 ?x10792)))
 (let ((?x3851 (sc_s 3)))
 (let ((?x4650 (bvadd (_ bv61 6) ?x3851)))
 (let (($x2212 (bvsle ?x4650 n)))
 (or $x2212 $x7275))))))))
 ))
 (let ((?x3851 (sc_s 3)))
 (let (($x951 (= ?x9433 ?x3851)))
 (let ((?x5055 (used_gas_s x_0 x_1 x_2 4)))
 (let (($x9138 (= ?x5055 (+ 3 (used_gas_s x_0 x_1 x_2 3)))))
 (let ((?x7786 (bvadd (_ bv62 6) ?x3851)))
 (let ((?x6543 (stack_s x_0 x_1 x_2 3 ?x7786)))
 (let (($x3301 (= ?x1205 ?x6543)))
 (let ((?x819 (bvadd (_ bv63 6) ?x3851)))
 (let ((?x3997 (stack_s x_0 x_1 x_2 3 ?x819)))
 (let (($x5347 (= (stack_s x_0 x_1 x_2 4 (bvadd (_ bv61 6) ?x9433)) ?x3997)))
 (let ((?x4650 (bvadd (_ bv61 6) ?x3851)))
 (let ((?x7199 (stack_s x_0 x_1 x_2 3 ?x4650)))
 (let (($x7763 (= ?x6020 ?x7199)))
 (let (($x10052 (exc_halt_s 2)))
 (let (($x267 (not (bvsle (_ bv0 6) (bvadd (_ bv61 6) (sc_s 2))))))
 (let (($x7136 (or $x267 (not (= ((_ extract 6 6) (bvadd (_ bv1 7) (concat (_ bv0 1) (sc_s 2)))) (_ bv0 1))) $x10052)))
 (let (($x8103 (exc_halt_s 3)))
 (let (($x6562 (forall ((w (_ BitVec 256)) )(let ((?x4581 (storage_s x_0 x_1 x_2 2 w)))
 (let ((?x1732 (storage_s x_0 x_1 x_2 3 w)))
 (= ?x1732 ?x4581))))
 ))
 (let (($x9398 (forall ((n (_ BitVec 6)) )(let ((?x3319 (stack_s x_0 x_1 x_2 2 n)))
 (let ((?x10792 (stack_s x_0 x_1 x_2 3 n)))
 (let (($x2445 (= ?x10792 ?x3319)))
 (let ((?x2272 (sc_s 2)))
 (let ((?x5654 (bvadd (_ bv61 6) ?x2272)))
 (let (($x1571 (bvsle ?x5654 n)))
 (or $x1571 $x2445))))))))
 ))
 (let ((?x11344 (used_gas_s x_0 x_1 x_2 3)))
 (let (($x6152 (= ?x11344 (+ 3 (used_gas_s x_0 x_1 x_2 2)))))
 (let ((?x2272 (sc_s 2)))
 (let ((?x4124 (bvadd (_ bv63 6) ?x2272)))
 (let ((?x10676 (stack_s x_0 x_1 x_2 2 ?x4124)))
 (let ((?x9521 (bvadd (_ bv62 6) ?x2272)))
 (let ((?x9511 (stack_s x_0 x_1 x_2 2 ?x9521)))
 (let ((?x5654 (bvadd (_ bv61 6) ?x2272)))
 (let ((?x11479 (stack_s x_0 x_1 x_2 2 ?x5654)))
 (let (($x1786 (= ?x3997 ?x11479)))
 (let (($x3645 (= $x10052 (or (exc_halt_s 1) (not (bvsle (_ bv0 6) (bvadd (_ bv61 6) (sc_s 1))))))))
 (let (($x9452 (forall ((w (_ BitVec 256)) )(let ((?x1653 (storage_s x_0 x_1 x_2 1 w)))
 (let ((?x4581 (storage_s x_0 x_1 x_2 2 w)))
 (= ?x4581 ?x1653))))
 ))
 (let (($x218 (forall ((n (_ BitVec 6)) )(let ((?x154 (sc_s 1)))
 (let ((?x272 (bvadd (_ bv61 6) ?x154)))
 (let (($x8642 (bvsle ?x272 n)))
 (let ((?x10907 (stack_s x_0 x_1 x_2 1 n)))
 (let ((?x3319 (stack_s x_0 x_1 x_2 2 n)))
 (let (($x8106 (= ?x3319 ?x10907)))
 (or $x8106 $x8642))))))))
 ))
 (let ((?x154 (sc_s 1)))
 (let (($x2606 (= ?x2272 ?x154)))
 (let ((?x9454 (used_gas_s x_0 x_1 x_2 2)))
 (let (($x1355 (= ?x9454 (+ 3 (used_gas_s x_0 x_1 x_2 1)))))
 (let ((?x9338 (bvadd (_ bv62 6) ?x154)))
 (let ((?x7130 (stack_s x_0 x_1 x_2 1 ?x9338)))
 (let (($x536 (= ?x9511 ?x7130)))
 (let ((?x3025 (bvadd (_ bv63 6) ?x154)))
 (let ((?x6299 (stack_s x_0 x_1 x_2 1 ?x3025)))
 (let (($x86 (= ?x11479 ?x6299)))
 (let (($x4446 (= ?x10676 (stack_s x_0 x_1 x_2 1 (bvadd (_ bv61 6) ?x154)))))
 (let (($x8780 (exc_halt_s 1)))
 (let (($x6330 (= $x8780 (or $x57 (not (bvsle (_ bv0 6) (bvadd (_ bv62 6) ?x72)))))))
 (let (($x5559 (forall ((w (_ BitVec 256)) )(let ((?x7998 (storage_s x_0 x_1 x_2 0 w)))
 (let ((?x1653 (storage_s x_0 x_1 x_2 1 w)))
 (= ?x1653 ?x7998))))
 ))
 (let (($x8230 (forall ((n (_ BitVec 6)) )(let ((?x72 (sc_s 0)))
 (let ((?x2568 (bvadd (_ bv62 6) ?x72)))
 (let (($x9819 (bvsle ?x2568 n)))
 (let ((?x3463 (stack_s x_0 x_1 x_2 0 n)))
 (let ((?x10907 (stack_s x_0 x_1 x_2 1 n)))
 (let (($x7801 (= ?x10907 ?x3463)))
 (or $x7801 $x9819))))))))
 ))
 (let (($x11779 (= ?x154 ?x72)))
 (let ((?x11359 (used_gas_s x_0 x_1 x_2 1)))
 (let (($x7918 (= ?x11359 (+ 3 ?x7505))))
 (let ((?x9431 (bvadd (_ bv63 6) ?x72)))
 (let ((?x8610 (stack_s x_0 x_1 x_2 0 ?x9431)))
 (let (($x8729 (= ?x7130 ?x8610)))
 (let ((?x2568 (bvadd (_ bv62 6) ?x72)))
 (let ((?x6673 (stack_s x_0 x_1 x_2 0 ?x2568)))
 (let (($x9315 (= ?x6299 ?x6673)))
 (let (($x5396 (forall ((w (_ BitVec 256)) )(let ((?x7998 (storage_s x_0 x_1 x_2 0 w)))
 (= ?x7998 (_ bv0 256))))
 ))
 (let (($x3433 (= ?x7505 0)))
 (let (($x10706 (not $x57)))
 (let (($x1227 (= (stack_s x_0 x_1 x_2 0 (_ bv2 6)) x_2)))
 (let (($x9339 (= (stack_s x_0 x_1 x_2 0 (_ bv1 6)) x_1)))
 (let (($x4805 (= (stack_s x_0 x_1 x_2 0 (_ bv0 6)) x_0)))
 (let (($x9108 (= ?x72 (_ bv3 6))))
 (and $x9108 $x4805 $x9339 $x1227 $x10706 $x3433 $x5396 $x9315 $x8729 $x7918 $x11779 $x8230 $x5559 $x6330 $x4446 $x86 $x536 $x1355 $x2606 $x218 $x9452 $x3645 $x1786 (= (stack_s x_0 x_1 x_2 3 ?x5654) ?x11479) (= (stack_s x_0 x_1 x_2 3 ?x9521) ?x9511) (= (stack_s x_0 x_1 x_2 3 ?x4124) ?x10676) $x6152 (= ?x3851 (bvadd (_ bv1 6) ?x2272)) $x9398 $x6562 (= $x8103 $x7136) $x7763 $x5347 $x3301 $x9138 $x951 $x4301 $x6977 $x4526 (= (stack_s x_0 x_1 x_2 5 (bvadd (_ bv63 6) ?x4319)) ?x1205) (= (stack_s x_0 x_1 x_2 5 (bvadd (_ bv62 6) ?x4319)) ?x6020) (= ?x3373 (+ 3 ?x5055)) $x932 $x2644 $x7683 $x10154 (= ?x7607 ?x7072) (= (stack_t x_0 x_1 x_2 1 ?x14) ?x7072) (= (stack_t x_0 x_1 x_2 1 ?x4937) ?x8080) $x10584 $x2614 $x415 $x2018 (= $x11710 (or $x56 $x1467 $x11494)) (= ?x2844 (stack_t x_0 x_1 x_2 1 (bvadd (_ bv60 6) ?x8615))) (= (stack_t x_0 x_1 x_2 2 (bvadd (_ bv60 6) ?x9193)) ?x7607) (= (stack_t x_0 x_1 x_2 2 (bvadd (_ bv61 6) ?x9193)) ?x2964) (= ?x7789 ?x7527) $x7742 $x10097 $x1173 $x6502 $x9780 $x73 $x3734 $x58 $x11468 $x11669 (not (and $x2129 $x11372 $x1256 $x7140)))))))))))))))))))))))))))))))))))))))))))))))))))))))))))))))))))))))))))))))))))))))))))))))))))))))))))))))))))))))))))))))))
 )
(check-sat)
(get-proof)
